0000000000000000
1111111111111111
1111111111111111
0000000000001111
0000000000001111
0000000000001111
1111000000001111
1111000000001111
1111000000001111
1111000000001111
0000000000000000
0000000000000000
0000000000000000
0000000000000000
0000000000000000
0000000000000000